language Essence 1.3

letting blksize_delta be
        function(1 --> 7, 2 --> 9, 3 --> 7, 4 --> 7, 5 --> 7, 6 --> 7, 7 --> 7, 8 --> 7, 9 --> 7, 10 --> 9, 11 --> 7,
                 12 --> 7, 13 --> 7, 14 --> 7, 15 --> 7, 16 --> 7, 17 --> 8, 18 --> 7, 19 --> 7, 20 --> 7, 21 --> 7,
                 22 --> 7, 23 --> 9, 24 --> 8, 25 --> 7, 26 --> 7, 27 --> 7, 28 --> 7, 29 --> 8, 30 --> 7, 31 --> 7)
letting maxcars be
        function(1 --> 10, 2 --> 7, 3 --> 7, 4 --> 7, 5 --> 7, 6 --> 7, 7 --> 7, 8 --> 7, 9 --> 7, 10 --> 7, 11 --> 7,
                 12 --> 7, 13 --> 7, 14 --> 7, 15 --> 10, 16 --> 7, 17 --> 7, 18 --> 7, 19 --> 7, 20 --> 7, 21 --> 8,
                 22 --> 7, 23 --> 7, 24 --> 7, 25 --> 7, 26 --> 7, 27 --> 10, 28 --> 7, 29 --> 7, 30 --> 7, 31 --> 7)
letting n_cars be 203
letting n_classes be 31
letting n_options be 31
letting quantity be
        function(1 --> 6, 2 --> 6, 3 --> 6, 4 --> 6, 5 --> 12, 6 --> 6, 7 --> 6, 8 --> 6, 9 --> 6, 10 --> 6, 11 --> 6,
                 12 --> 6, 13 --> 6, 14 --> 6, 15 --> 6, 16 --> 6, 17 --> 6, 18 --> 6, 19 --> 10, 20 --> 6, 21 --> 6,
                 22 --> 6, 23 --> 6, 24 --> 6, 25 --> 6, 26 --> 6, 27 --> 6, 28 --> 6, 29 --> 11, 30 --> 6, 31 --> 8)
letting usage be
        relation((1, 7), (1, 18), (1, 30), (2, 11), (2, 27), (2, 31), (3, 1), (3, 8), (3, 10), (3, 16), (3, 19),
                 (3, 21), (3, 30), (4, 6), (4, 21), (4, 24), (4, 30), (5, 7), (5, 11), (5, 21), (5, 24), (6, 18),
                 (7, 6), (7, 11), (7, 27), (7, 30), (8, 31), (9, 13), (9, 14), (9, 18), (9, 24), (9, 25), (10, 9),
                 (10, 13), (10, 18), (10, 21), (11, 3), (11, 5), (11, 9), (11, 21), (11, 24), (12, 31), (13, 3),
                 (13, 5), (14, 16), (14, 25), (15, 13), (15, 14), (15, 15), (15, 21), (15, 24), (16, 31), (17, 6),
                 (17, 7), (17, 10), (17, 25), (18, 22), (18, 26), (18, 29), (18, 31), (19, 7), (19, 10), (19, 22),
                 (20, 23), (20, 29), (20, 30), (21, 18), (22, 1), (22, 4), (22, 5), (22, 11), (22, 13), (23, 23),
                 (24, 3), (24, 6), (24, 14), (24, 16), (25, 4), (25, 11), (25, 21), (25, 28), (26, 3), (26, 4),
                 (26, 10), (26, 27), (27, 1), (27, 12), (27, 16), (27, 19), (27, 26), (28, 10), (28, 22), (28, 24),
                 (29, 5), (29, 12), (30, 4), (30, 15), (31, 2), (31, 7), (31, 14), (31, 17), (31, 18), (31, 19),
                 (31, 20), (31, 31))
$ Visualisation for usage
$  1  7
$  1 18
$  1 30
$  2 11
$  2 27
$  2 31
$  3  1
$  3  8
$  3 10
$  3 16
$  3 19
$  3 21
$  3 30
$  4  6
$  4 21
$  4 24
$  4 30
$  5  7
$  5 11
$  5 21
$  5 24
$  6 18
$  7  6
$  7 11
$  7 27
$  7 30
$  8 31
$  9 13
$  9 14
$  9 18
$  9 24
$  9 25
$ 10  9
$ 10 13
$ 10 18
$ 10 21
$ 11  3
$ 11  5
$ 11  9
$ 11 21
$ 11 24
$ 12 31
$ 13  3
$ 13  5
$ 14 16
$ 14 25
$ 15 13
$ 15 14
$ 15 15
$ 15 21
$ 15 24
$ 16 31
$ 17  6
$ 17  7
$ 17 10
$ 17 25
$ 18 22
$ 18 26
$ 18 29
$ 18 31
$ 19  7
$ 19 10
$ 19 22
$ 20 23
$ 20 29
$ 20 30
$ 21 18
$ 22  1
$ 22  4
$ 22  5
$ 22 11
$ 22 13
$ 23 23
$ 24  3
$ 24  6
$ 24 14
$ 24 16
$ 25  4
$ 25 11
$ 25 21
$ 25 28
$ 26  3
$ 26  4
$ 26 10
$ 26 27
$ 27  1
$ 27 12
$ 27 16
$ 27 19
$ 27 26
$ 28 10
$ 28 22
$ 28 24
$ 29  5
$ 29 12
$ 30  4
$ 30 15
$ 31  2
$ 31  7
$ 31 14
$ 31 17
$ 31 18
$ 31 19
$ 31 20
$ 31 31

